NAME : unige_mmas
TYPE : TOUR
DIMENSION : 47
TOUR_LENGTH : 14794.8
SECTION : TOUR_SECTION
1
9
33
11
10
38
24
21
26
23
34
15
27
16
36
35
44
19
18
31
43
13
47
46
42
12
20
30
14
37
25
29
17
45
28
2
39
6
4
3
7
32
40
22
41
5
8
-1
EOF
